NAME: CVRP_BENCHMARK
TYPE: CVRP
COMMENT: none
DIMENSION: 76
NUM_DAYS: 5
CAPACITY: 140
DISTANCE: 9999999
EDGE_WEIGHT_TYPE: FUNCTION
EDGE_WEIGHT_FORMAT: EUC_2D
NODE_COORD_TYPE: TWOD_COORDS
NODE_COORD_SECTION
1	-18.000 -18.000
2	-4.000 -14.000
3	-19.000 5.000
4	5.000 -5.000
5	15.000 -20.000
6	-7.000 -6.000
7	10.000 10.000
8	15.000 5.000
9	-14.000 19.000
10	0.000 26.000
11	15.000 25.000
12	-5.000 11.000
13	22.000 -5.000
14	22.000 17.000
15	22.000 -16.000
16	-19.000 -4.000
17	-7.000 4.000
18	-31.000 16.000
19	22.000 8.000
20	26.000 -26.000
21	4.000 -27.000
22	-14.000 -27.000
23	-29.000 -12.000
24	-33.000 3.000
25	-23.000 24.000
26	1.000 6.000
27	15.000 -6.000
28	-5.000 -24.000
29	12.000 -14.000
30	3.000 -14.000
31	-9.000 36.000
32	-18.000 13.000
33	-14.000 -11.000
34	10.000 0.000
35	15.000 10.000
36	14.000 -30.000
37	20.000 -25.000
38	7.000 26.000
39	-10.000 20.000
40	-10.000 10.000
41	-28.000 -23.000
42	-25.000 -26.000
43	-24.000 -21.000
44	-19.000 8.000
45	10.000 -10.000
46	11.000 2.000
47	10.000 -25.000
48	8.000 -19.000
49	-28.000 -2.000
50	-25.000 16.000
51	-11.000 -1.000
52	14.000 -2.000
53	15.000 17.000
54	27.000 1.000
55	-30.000 30.000
56	-34.000 -15.000
57	25.000 -13.000
58	0.000 20.000
59	30.000 24.000
60	24.000 -36.000
61	-4.000 -34.000
62	-10.000 -20.000
63	-20.000 -10.000
64	-25.000 -35.000
65	10.000 30.000
66	17.000 32.000
67	5.000 2.000
68	-2.000 -7.000
69	10.000 -36.000
70	26.000 -32.000
71	19.000 -35.000
72	-5.000 20.000
73	-13.000 -16.000
74	0.000 -20.000
75	0.000 -3.000
DEMAND_SECTION
1 18 18 18 18 18
2 26 26 26 26 -1
3 11 11 11 11 11
4 30 30 30 30 30
5 21 21 -1 -1 21
6 19 19 -1 19 19
7 -1 15 -1 15 15
8 -1 -1 16 -1 16
9 -1 -1 29 29 -1
10 26 -1 26 -1 26
11 37 37 -1 -1 37
12 16 16 16 -1 16
13 -1 12 12 -1 -1
14 31 -1 31 -1 31
15 8 8 -1 -1 8
16 19 -1 19 19 19
17 20 20 20 20 20
18 -1 13 13 -1 13
19 15 -1 15 15 -1
20 22 22 22 -1 22
21 28 28 -1 28 28
22 -1 12 12 12 12
23 -1 6 6 6 -1
24 27 27 27 27 27
25 14 -1 14 14 14
26 18 -1 -1 18 -1
27 17 -1 17 17 17
28 29 29 29 -1 29
29 -1 -1 13 13 -1
30 22 22 22 -1 22
31 25 -1 25 25 -1
32 -1 28 -1 -1 28
33 -1 27 27 27 27
34 -1 19 19 -1 19
35 10 10 10 10 10
36 12 -1 12 12 12
37 14 14 14 -1 -1
38 24 24 -1 -1 24
39 16 16 -1 16 16
40 33 -1 -1 33 33
41 15 15 -1 -1 15
42 -1 11 11 11 11
43 -1 18 18 18 18
44 17 17 17 17 17
45 21 21 21 21 21
46 27 27 27 27 -1
47 19 19 19 19 19
48 -1 20 20 -1 20
49 5 5 5 5 5
50 22 -1 22 -1 -1
51 12 12 12 12 -1
52 19 19 19 19 19
53 22 22 22 22 22
54 -1 16 16 16 16
55 -1 -1 7 -1 7
56 -1 26 26 26 -1
57 14 14 14 -1 -1
58 21 21 21 -1 21
59 24 24 -1 -1 -1
60 13 13 -1 13 13
61 15 15 15 -1 15
62 -1 18 -1 18 18
63 11 11 11 -1 -1
64 28 28 28 28 28
65 9 9 9 -1 9
66 37 -1 -1 37 37
67 -1 30 30 30 30
68 10 -1 10 10 -1
69 8 8 8 8 8
70 -1 11 -1 -1 11
71 3 -1 3 -1 -1
72 1 1 1 1 1
73 6 6 -1 -1 6
74 -1 -1 -1 -1 10
75 20 20 20 20 20
SVC_TIME_SECTION
1	0.000000	0.000000	0.000000	0.000000	0.000000	
2	0.000000	0.000000	0.000000	0.000000	0.000000	
3	0.000000	0.000000	0.000000	0.000000	0.000000	
4	0.000000	0.000000	0.000000	0.000000	0.000000	
5	0.000000	0.000000	0.000000	0.000000	0.000000	
6	0.000000	0.000000	0.000000	0.000000	0.000000	
7	0.000000	0.000000	0.000000	0.000000	0.000000	
8	0.000000	0.000000	0.000000	0.000000	0.000000	
9	0.000000	0.000000	0.000000	0.000000	0.000000	
10	0.000000	0.000000	0.000000	0.000000	0.000000	
11	0.000000	0.000000	0.000000	0.000000	0.000000	
12	0.000000	0.000000	0.000000	0.000000	0.000000	
13	0.000000	0.000000	0.000000	0.000000	0.000000	
14	0.000000	0.000000	0.000000	0.000000	0.000000	
15	0.000000	0.000000	0.000000	0.000000	0.000000	
16	0.000000	0.000000	0.000000	0.000000	0.000000	
17	0.000000	0.000000	0.000000	0.000000	0.000000	
18	0.000000	0.000000	0.000000	0.000000	0.000000	
19	0.000000	0.000000	0.000000	0.000000	0.000000	
20	0.000000	0.000000	0.000000	0.000000	0.000000	
21	0.000000	0.000000	0.000000	0.000000	0.000000	
22	0.000000	0.000000	0.000000	0.000000	0.000000	
23	0.000000	0.000000	0.000000	0.000000	0.000000	
24	0.000000	0.000000	0.000000	0.000000	0.000000	
25	0.000000	0.000000	0.000000	0.000000	0.000000	
26	0.000000	0.000000	0.000000	0.000000	0.000000	
27	0.000000	0.000000	0.000000	0.000000	0.000000	
28	0.000000	0.000000	0.000000	0.000000	0.000000	
29	0.000000	0.000000	0.000000	0.000000	0.000000	
30	0.000000	0.000000	0.000000	0.000000	0.000000	
31	0.000000	0.000000	0.000000	0.000000	0.000000	
32	0.000000	0.000000	0.000000	0.000000	0.000000	
33	0.000000	0.000000	0.000000	0.000000	0.000000	
34	0.000000	0.000000	0.000000	0.000000	0.000000	
35	0.000000	0.000000	0.000000	0.000000	0.000000	
36	0.000000	0.000000	0.000000	0.000000	0.000000	
37	0.000000	0.000000	0.000000	0.000000	0.000000	
38	0.000000	0.000000	0.000000	0.000000	0.000000	
39	0.000000	0.000000	0.000000	0.000000	0.000000	
40	0.000000	0.000000	0.000000	0.000000	0.000000	
41	0.000000	0.000000	0.000000	0.000000	0.000000	
42	0.000000	0.000000	0.000000	0.000000	0.000000	
43	0.000000	0.000000	0.000000	0.000000	0.000000	
44	0.000000	0.000000	0.000000	0.000000	0.000000	
45	0.000000	0.000000	0.000000	0.000000	0.000000	
46	0.000000	0.000000	0.000000	0.000000	0.000000	
47	0.000000	0.000000	0.000000	0.000000	0.000000	
48	0.000000	0.000000	0.000000	0.000000	0.000000	
49	0.000000	0.000000	0.000000	0.000000	0.000000	
50	0.000000	0.000000	0.000000	0.000000	0.000000	
51	0.000000	0.000000	0.000000	0.000000	0.000000	
52	0.000000	0.000000	0.000000	0.000000	0.000000	
53	0.000000	0.000000	0.000000	0.000000	0.000000	
54	0.000000	0.000000	0.000000	0.000000	0.000000	
55	0.000000	0.000000	0.000000	0.000000	0.000000	
56	0.000000	0.000000	0.000000	0.000000	0.000000	
57	0.000000	0.000000	0.000000	0.000000	0.000000	
58	0.000000	0.000000	0.000000	0.000000	0.000000	
59	0.000000	0.000000	0.000000	0.000000	0.000000	
60	0.000000	0.000000	0.000000	0.000000	0.000000	
61	0.000000	0.000000	0.000000	0.000000	0.000000	
62	0.000000	0.000000	0.000000	0.000000	0.000000	
63	0.000000	0.000000	0.000000	0.000000	0.000000	
64	0.000000	0.000000	0.000000	0.000000	0.000000	
65	0.000000	0.000000	0.000000	0.000000	0.000000	
66	0.000000	0.000000	0.000000	0.000000	0.000000	
67	0.000000	0.000000	0.000000	0.000000	0.000000	
68	0.000000	0.000000	0.000000	0.000000	0.000000	
69	0.000000	0.000000	0.000000	0.000000	0.000000	
70	0.000000	0.000000	0.000000	0.000000	0.000000	
71	0.000000	0.000000	0.000000	0.000000	0.000000	
72	0.000000	0.000000	0.000000	0.000000	0.000000	
73	0.000000	0.000000	0.000000	0.000000	0.000000	
74	0.000000	0.000000	0.000000	0.000000	0.000000	
75	0.000000	0.000000	0.000000	0.000000	0.000000	
DEPOT_SECTION
0.0000 0.00000
-1
EOF

